\ENCODING=ISO-8859-1
\Problem name: HCP

Minimize
 obj: 3.42 x2 + 3.92 x3 + 5.12 x4 + 4.12 x5 + 0.12 x6 + 0.06 x7 + 0.06 x8
      + 3.17 x9 + 5.82 x10 + 1.18 x11 + 5 x12 + 0.12 x13 + 4.22 x14 + 0.12 x15
      + 2.82 x16 + 2.12 x17 + 3.36 x18 + 0.06 x19 + 0.17 x20 + 1.82 x21
      + 4.48 x22 + 5.12 x23 + 4.22 x25 + 0.12 x26 + 2.82 x27 + 2.12 x28
      + 3.36 x29 + 0.06 x30 + 0.17 x31 + 1.82 x32 + 4.48 x33 + 5.12 x34
      + 0.12 x35 + 4.1 x36 + 0.12 x37 + 2.82 x38 + 2.12 x39 + 3.36 x40
      + 0.17 x41 + 0.06 x42 + 2.37 x43 + 4.3 x44 + 5.12 x45 + 0.12 x46
      + 4.22 x47 + 2.82 x49 + 2.12 x50 + 3.36 x51 + 0.17 x52 + 0.06 x53
      + 2.37 x54 + 4.3 x55 + 5.12 x56 + 0.12 x57 + 4.22 x58 + 0.12 x59
      + 2.7 x60 + 2.12 x61 + 3.5 x62 + 0.06 x63 + 0.06 x64 + 1.82 x65 + 4.3 x66
      + 5.12 x67 + 0.12 x68 + 4.22 x69 + 0.12 x70 + 2.82 x71 + 2 x72 + 3.5 x73
      + 0.06 x74 + 0.06 x75 + 1.82 x76 + 4.3 x77 + 5.06 x78 + 0.06 x79
      + 4.16 x80 + 0.06 x81 + 2.72 x82 + 2.02 x83 + 3.3 x84 + 0.14 x85
      + 0.25 x86 + 2.3 x87 + 7 x88 + 5.06 x89 + 0.06 x90 + 4.27 x91 + 0.17 x92
      + 2.76 x93 + 2.06 x94 + 3.44 x95 + 0.11 x97 + 1.76 x98 + 4.42 x99
      + 5.17 x100 + 0.17 x101 + 4.16 x102 + 0.06 x103 + 2.76 x104 + 2.06 x105
      + 3.55 x106 + 0.11 x107 + 2.3 x109 + 4.24 x110 + 6.82 x111 + 1.82 x112
      + 6.47 x113 + 2.37 x114 + 4.52 x115 + 3.82 x116 + 5.6 x117 + 1.76 x118
      + 2.3 x119 + 4.24 x121 + 6.18 x122 + 1.18 x123 + 5.1 x124 + x125
      + 3.7 x126 + 3 x127 + 7 x128 + 1.12 x129 + 0.94 x130 + 1.37 x131
      + 3.3 x132 + 0.12 x134 + 0.12 x135 + 0.12 x136 + 0.12 x137 + 0.12 x138
      + 3.36 x139 + 4.06 x140 + 3.97 x141 + 1.82 x142 + 4.28 x143 + 0.12 x144
      + 0.12 x146 + 0.12 x147 + 0.12 x148 + 0.12 x149 + 3.36 x150 + 4.06 x151
      + 3.97 x152 + 1.82 x153 + 4.28 x154 + 0.12 x155 + 0.12 x156 + 0.12 x158
      + 0.12 x159 + 0.12 x160 + 3.36 x161 + 4.17 x162 + 3.86 x163 + 2.37 x164
      + 4.1 x165 + 0.12 x166 + 0.12 x167 + 0.12 x168 + 0.12 x170 + 0.12 x171
      + 3.36 x172 + 4.17 x173 + 3.86 x174 + 2.37 x175 + 4.1 x176 + 0.12 x177
      + 0.12 x178 + 0.12 x179 + 0.12 x180 + 0.12 x182 + 3.5 x183 + 4.06 x184
      + 3.86 x185 + 1.82 x186 + 4.1 x187 + 0.12 x188 + 0.12 x189 + 0.12 x190
      + 0.12 x191 + 0.12 x192 + 3.5 x194 + 4.06 x195 + 3.86 x196 + 1.82 x197
      + 4.1 x198 + 0.06 x199 + 0.06 x200 + 0.06 x201 + 0.06 x202 + 0.02 x203
      + 0.02 x204 + 3.3 x205 + 4.14 x206 + 4.05 x207 + 2.3 x208 + 6.8 x209
      + 0.06 x210 + 0.06 x211 + 0.17 x212 + 0.17 x213 + 0.06 x214 + 0.06 x215
      + 3.44 x216 + 4 x217 + 3.91 x218 + 1.76 x219 + 4.22 x220 + 0.17 x221
      + 0.17 x222 + 0.06 x223 + 0.06 x224 + 0.06 x225 + 0.06 x226 + 3.55 x227
      + 4.11 x228 + 3.8 x229 + 2.3 x230 + 4.04 x231 + 1.82 x232 + 1.82 x233
      + 2.37 x234 + 2.37 x235 + 1.82 x236 + 1.82 x237 + 5.6 x238 + 5.76 x239
      + 6.1 x240 + 4.04 x242 + 1.18 x243 + 1.18 x244 + x245 + x246 + x247
      + x248 + 7 x249 + 5.12 x250 + 4.74 x251 + 1.37 x252 + 3.1 x253
      + 0.12 x255 + 0.12 x256 + 0.12 x257 + 0.12 x258 + 0.12 x259 + 0.06 x260
      + 0.06 x261 + 0.17 x262 + 3.72 x263 + 3.18 x264 + 0.12 x265 + 0.12 x267
      + 0.12 x268 + 0.12 x269 + 0.12 x270 + 0.06 x271 + 0.06 x272 + 0.17 x273
      + 3.72 x274 + 3.18 x275 + 0.12 x276 + 0.12 x277 + 0.12 x279 + 0.12 x280
      + 0.12 x281 + 0.06 x282 + 0.17 x283 + 0.06 x284 + 4.27 x285 + 3 x286
      + 0.12 x287 + 0.12 x288 + 0.12 x289 + 0.12 x291 + 0.12 x292 + 0.06 x293
      + 0.17 x294 + 0.06 x295 + 4.27 x296 + 3 x297 + 0.12 x298 + 0.12 x299
      + 0.12 x300 + 0.12 x301 + 0.12 x303 + 0.2 x304 + 0.06 x305 + 0.06 x306
      + 3.72 x307 + 3 x308 + 0.12 x309 + 0.12 x310 + 0.12 x311 + 0.12 x312
      + 0.12 x313 + 0.2 x315 + 0.06 x316 + 0.06 x317 + 3.72 x318 + 3 x319
      + 0.06 x320 + 0.06 x321 + 0.06 x322 + 0.06 x323 + 0.02 x324 + 0.02 x325
      + 0.14 x327 + 0.25 x328 + 4.2 x329 + 5.7 x330 + 0.06 x331 + 0.06 x332
      + 0.17 x333 + 0.17 x334 + 0.06 x335 + 0.06 x336 + 0.14 x337 + 0.11 x339
      + 3.66 x340 + 3.12 x341 + 0.17 x342 + 0.17 x343 + 0.06 x344 + 0.06 x345
      + 0.06 x346 + 0.06 x347 + 0.25 x348 + 0.11 x349 + 4.2 x351 + 2.94 x352
      + 1.82 x353 + 1.82 x354 + 2.37 x355 + 2.37 x356 + 1.82 x357 + 1.82 x358
      + 2.3 x359 + 1.76 x360 + 2.3 x361 + 1.9 x362 + 2.94 x363 + 1.18 x364
      + 1.18 x365 + x366 + x367 + x368 + x369 + 3.7 x370 + 1.12 x371
      + 0.94 x372 + 3.27 x373 + 2 x374 + 0.12 x375 + 0.12 x376 + 0.12 x377
      + 0.12 x378 + 0.12 x379 + 0.2 x381 + 0.06 x382 + 0.06 x383 + 1.82 x384
      + x385
Subject To
 c1:  x1 + x2 + x3 + x4 + x5 + x6 + x7 + x8 + x9 + x10 + x11  = 1
 c2:  x375 + x376 + x377 + x378 + x379 + x380 + x381 + x382 + x383 + x384
      + x385  = 1
 c3:  - x1 + x12 + x13 + x14 + x15 + x16 + x17 + x18 + x19 + x20 + x21 + x22
       = 0
 c4:  - x2 + x23 + x24 + x25 + x26 + x27 + x28 + x29 + x30 + x31 + x32 + x33
       = 0
 c5:  - x3 + x34 + x35 + x36 + x37 + x38 + x39 + x40 + x41 + x42 + x43 + x44
       = 0
 c6:  - x4 + x45 + x46 + x47 + x48 + x49 + x50 + x51 + x52 + x53 + x54 + x55
       = 0
 c7:  - x5 + x56 + x57 + x58 + x59 + x60 + x61 + x62 + x63 + x64 + x65 + x66
       = 0
 c8:  - x6 + x67 + x68 + x69 + x70 + x71 + x72 + x73 + x74 + x75 + x76 + x77
       = 0
 c9:  - x7 + x78 + x79 + x80 + x81 + x82 + x83 + x84 + x85 + x86 + x87 + x88
       = 0
 c10: - x8 + x89 + x90 + x91 + x92 + x93 + x94 + x95 + x96 + x97 + x98 + x99
       = 0
 c11: - x9 + x100 + x101 + x102 + x103 + x104 + x105 + x106 + x107 + x108
      + x109 + x110  = 0
 c12: - x10 + x111 + x112 + x113 + x114 + x115 + x116 + x117 + x118 + x119
      + x120 + x121  = 0
 c13: - x11 + x122 + x123 + x124 + x125 + x126 + x127 + x128 + x129 + x130
      + x131 + x132  = 0
 c14: - x12 - x23 - x34 - x45 - x56 - x67 - x78 - x89 - x100 - x111 - x122
      + x133 + x134 + x135 + x136 + x137 + x138 + x139 + x140 + x141 + x142
      + x143  = 0
 c15: - x13 - x24 - x35 - x46 - x57 - x68 - x79 - x90 - x101 - x112 - x123
      + x144 + x145 + x146 + x147 + x148 + x149 + x150 + x151 + x152 + x153
      + x154  = 0
 c16: - x14 - x25 - x36 - x47 - x58 - x69 - x80 - x91 - x102 - x113 - x124
      + x155 + x156 + x157 + x158 + x159 + x160 + x161 + x162 + x163 + x164
      + x165  = 0
 c17: - x15 - x26 - x37 - x48 - x59 - x70 - x81 - x92 - x103 - x114 - x125
      + x166 + x167 + x168 + x169 + x170 + x171 + x172 + x173 + x174 + x175
      + x176  = 0
 c18: - x16 - x27 - x38 - x49 - x60 - x71 - x82 - x93 - x104 - x115 - x126
      + x177 + x178 + x179 + x180 + x181 + x182 + x183 + x184 + x185 + x186
      + x187  = 0
 c19: - x17 - x28 - x39 - x50 - x61 - x72 - x83 - x94 - x105 - x116 - x127
      + x188 + x189 + x190 + x191 + x192 + x193 + x194 + x195 + x196 + x197
      + x198  = 0
 c20: - x18 - x29 - x40 - x51 - x62 - x73 - x84 - x95 - x106 - x117 - x128
      + x199 + x200 + x201 + x202 + x203 + x204 + x205 + x206 + x207 + x208
      + x209  = 0
 c21: - x19 - x30 - x41 - x52 - x63 - x74 - x85 - x96 - x107 - x118 - x129
      + x210 + x211 + x212 + x213 + x214 + x215 + x216 + x217 + x218 + x219
      + x220  = 0
 c22: - x20 - x31 - x42 - x53 - x64 - x75 - x86 - x97 - x108 - x119 - x130
      + x221 + x222 + x223 + x224 + x225 + x226 + x227 + x228 + x229 + x230
      + x231  = 0
 c23: - x21 - x32 - x43 - x54 - x65 - x76 - x87 - x98 - x109 - x120 - x131
      + x232 + x233 + x234 + x235 + x236 + x237 + x238 + x239 + x240 + x241
      + x242  = 0
 c24: - x22 - x33 - x44 - x55 - x66 - x77 - x88 - x99 - x110 - x121 - x132
      + x243 + x244 + x245 + x246 + x247 + x248 + x249 + x250 + x251 + x252
      + x253  = 0
 c25: - x133 - x144 - x155 - x166 - x177 - x188 - x199 - x210 - x221 - x232
      - x243 + x254 + x255 + x256 + x257 + x258 + x259 + x260 + x261 + x262
      + x263 + x264  = 0
 c26: - x134 - x145 - x156 - x167 - x178 - x189 - x200 - x211 - x222 - x233
      - x244 + x265 + x266 + x267 + x268 + x269 + x270 + x271 + x272 + x273
      + x274 + x275  = 0
 c27: - x135 - x146 - x157 - x168 - x179 - x190 - x201 - x212 - x223 - x234
      - x245 + x276 + x277 + x278 + x279 + x280 + x281 + x282 + x283 + x284
      + x285 + x286  = 0
 c28: - x136 - x147 - x158 - x169 - x180 - x191 - x202 - x213 - x224 - x235
      - x246 + x287 + x288 + x289 + x290 + x291 + x292 + x293 + x294 + x295
      + x296 + x297  = 0
 c29: - x137 - x148 - x159 - x170 - x181 - x192 - x203 - x214 - x225 - x236
      - x247 + x298 + x299 + x300 + x301 + x302 + x303 + x304 + x305 + x306
      + x307 + x308  = 0
 c30: - x138 - x149 - x160 - x171 - x182 - x193 - x204 - x215 - x226 - x237
      - x248 + x309 + x310 + x311 + x312 + x313 + x314 + x315 + x316 + x317
      + x318 + x319  = 0
 c31: - x139 - x150 - x161 - x172 - x183 - x194 - x205 - x216 - x227 - x238
      - x249 + x320 + x321 + x322 + x323 + x324 + x325 + x326 + x327 + x328
      + x329 + x330  = 0
 c32: - x140 - x151 - x162 - x173 - x184 - x195 - x206 - x217 - x228 - x239
      - x250 + x331 + x332 + x333 + x334 + x335 + x336 + x337 + x338 + x339
      + x340 + x341  = 0
 c33: - x141 - x152 - x163 - x174 - x185 - x196 - x207 - x218 - x229 - x240
      - x251 + x342 + x343 + x344 + x345 + x346 + x347 + x348 + x349 + x350
      + x351 + x352  = 0
 c34: - x142 - x153 - x164 - x175 - x186 - x197 - x208 - x219 - x230 - x241
      - x252 + x353 + x354 + x355 + x356 + x357 + x358 + x359 + x360 + x361
      + x362 + x363  = 0
 c35: - x143 - x154 - x165 - x176 - x187 - x198 - x209 - x220 - x231 - x242
      - x253 + x364 + x365 + x366 + x367 + x368 + x369 + x370 + x371 + x372
      + x373 + x374  = 0
 c36: - x254 - x265 - x276 - x287 - x298 - x309 - x320 - x331 - x342 - x353
      - x364 + x375  = 0
 c37: - x255 - x266 - x277 - x288 - x299 - x310 - x321 - x332 - x343 - x354
      - x365 + x376  = 0
 c38: - x256 - x267 - x278 - x289 - x300 - x311 - x322 - x333 - x344 - x355
      - x366 + x377  = 0
 c39: - x257 - x268 - x279 - x290 - x301 - x312 - x323 - x334 - x345 - x356
      - x367 + x378  = 0
 c40: - x258 - x269 - x280 - x291 - x302 - x313 - x324 - x335 - x346 - x357
      - x368 + x379  = 0
 c41: - x259 - x270 - x281 - x292 - x303 - x314 - x325 - x336 - x347 - x358
      - x369 + x380  = 0
 c42: - x260 - x271 - x282 - x293 - x304 - x315 - x326 - x337 - x348 - x359
      - x370 + x381  = 0
 c43: - x261 - x272 - x283 - x294 - x305 - x316 - x327 - x338 - x349 - x360
      - x371 + x382  = 0
 c44: - x262 - x273 - x284 - x295 - x306 - x317 - x328 - x339 - x350 - x361
      - x372 + x383  = 0
 c45: - x263 - x274 - x285 - x296 - x307 - x318 - x329 - x340 - x351 - x362
      - x373 + x384  = 0
 c46: - x264 - x275 - x286 - x297 - x308 - x319 - x330 - x341 - x352 - x363
      - x374 + x385  = 0
 c47: x12 + x13 + x14 + x15 + x16 + x17 + x18 + x19 + x20 + x21 + x22 + x133
      + x134 + x135 + x136 + x137 + x138 + x139 + x140 + x141 + x142 + x143
      + x254 + x255 + x256 + x257 + x258 + x259 + x260 + x261 + x262 + x263
      + x264 + x375 <= 4
 c48: x23 + x24 + x25 + x26 + x27 + x28 + x29 + x30 + x31 + x32 + x33 + x144
      + x145 + x146 + x147 + x148 + x149 + x150 + x151 + x152 + x153 + x154
      + x265 + x266 + x267 + x268 + x269 + x270 + x271 + x272 + x273 + x274
      + x275 + x376 <= 4
 c49: x34 + x35 + x36 + x37 + x38 + x39 + x40 + x41 + x42 + x43 + x44 + x155
      + x156 + x157 + x158 + x159 + x160 + x161 + x162 + x163 + x164 + x165
      + x276 + x277 + x278 + x279 + x280 + x281 + x282 + x283 + x284 + x285
      + x286 + x377 <= 4
 c50: x45 + x46 + x47 + x48 + x49 + x50 + x51 + x52 + x53 + x54 + x55 + x166
      + x167 + x168 + x169 + x170 + x171 + x172 + x173 + x174 + x175 + x176
      + x287 + x288 + x289 + x290 + x291 + x292 + x293 + x294 + x295 + x296
      + x297 + x378 <= 4
 c51: x56 + x57 + x58 + x59 + x60 + x61 + x62 + x63 + x64 + x65 + x66 + x177
      + x178 + x179 + x180 + x181 + x182 + x183 + x184 + x185 + x186 + x187
      + x298 + x299 + x300 + x301 + x302 + x303 + x304 + x305 + x306 + x307
      + x308 + x379 <= 4
 c52: x67 + x68 + x69 + x70 + x71 + x72 + x73 + x74 + x75 + x76 + x77 + x188
      + x189 + x190 + x191 + x192 + x193 + x194 + x195 + x196 + x197 + x198
      + x309 + x310 + x311 + x312 + x313 + x314 + x315 + x316 + x317 + x318
      + x319 + x380 <= 4
 c53: x78 + x79 + x80 + x81 + x82 + x83 + x84 + x85 + x86 + x87 + x88 + x199
      + x200 + x201 + x202 + x203 + x204 + x205 + x206 + x207 + x208 + x209
      + x320 + x321 + x322 + x323 + x324 + x325 + x326 + x327 + x328 + x329
      + x330 + x381 <= 4
 c54: x89 + x90 + x91 + x92 + x93 + x94 + x95 + x96 + x97 + x98 + x99 + x210
      + x211 + x212 + x213 + x214 + x215 + x216 + x217 + x218 + x219 + x220
      + x331 + x332 + x333 + x334 + x335 + x336 + x337 + x338 + x339 + x340
      + x341 + x382 <= 4
 c55: x100 + x101 + x102 + x103 + x104 + x105 + x106 + x107 + x108 + x109
      + x110 + x221 + x222 + x223 + x224 + x225 + x226 + x227 + x228 + x229
      + x230 + x231 + x342 + x343 + x344 + x345 + x346 + x347 + x348 + x349
      + x350 + x351 + x352 + x383 <= 4
 c56: x111 + x112 + x113 + x114 + x115 + x116 + x117 + x118 + x119 + x120
      + x121 + x232 + x233 + x234 + x235 + x236 + x237 + x238 + x239 + x240
      + x241 + x242 + x353 + x354 + x355 + x356 + x357 + x358 + x359 + x360
      + x361 + x362 + x363 + x384 <= 4
 c57: x122 + x123 + x124 + x125 + x126 + x127 + x128 + x129 + x130 + x131
      + x132 + x243 + x244 + x245 + x246 + x247 + x248 + x249 + x250 + x251
      + x252 + x253 + x364 + x365 + x366 + x367 + x368 + x369 + x370 + x371
      + x372 + x373 + x374 + x385 <= 4
Bounds
      x1 = 0
 0 <= x2 <= 1
 0 <= x3 <= 1
 0 <= x4 <= 1
 0 <= x5 <= 1
      x6 = 0
      x7 = 0
      x8 = 0
 0 <= x9 <= 1
 0 <= x10 <= 1
      x11 = 0
 0 <= x12 <= 1
      x13 = 0
 0 <= x14 <= 1
      x15 = 0
 0 <= x16 <= 1
 0 <= x17 <= 1
 0 <= x18 <= 1
      x19 = 0
      x20 = 0
      x21 = 0
 0 <= x22 <= 1
 0 <= x23 <= 1
      x24 = 0
 0 <= x25 <= 1
      x26 = 0
 0 <= x27 <= 1
 0 <= x28 <= 1
 0 <= x29 <= 1
      x30 = 0
      x31 = 0
      x32 = 0
 0 <= x33 <= 1
 0 <= x34 <= 1
      x35 = 0
 0 <= x36 <= 1
      x37 = 0
 0 <= x38 <= 1
 0 <= x39 <= 1
 0 <= x40 <= 1
      x41 = 0
      x42 = 0
      x43 = 0
 0 <= x44 <= 1
 0 <= x45 <= 1
      x46 = 0
 0 <= x47 <= 1
      x48 = 0
 0 <= x49 <= 1
 0 <= x50 <= 1
 0 <= x51 <= 1
      x52 = 0
      x53 = 0
      x54 = 0
 0 <= x55 <= 1
 0 <= x56 <= 1
      x57 = 0
 0 <= x58 <= 1
      x59 = 0
 0 <= x60 <= 1
 0 <= x61 <= 1
 0 <= x62 <= 1
      x63 = 0
      x64 = 0
      x65 = 0
 0 <= x66 <= 1
 0 <= x67 <= 1
      x68 = 0
 0 <= x69 <= 1
      x70 = 0
 0 <= x71 <= 1
 0 <= x72 <= 1
 0 <= x73 <= 1
      x74 = 0
      x75 = 0
      x76 = 0
 0 <= x77 <= 1
 0 <= x78 <= 1
      x79 = 0
 0 <= x80 <= 1
      x81 = 0
 0 <= x82 <= 1
 0 <= x83 <= 1
 0 <= x84 <= 1
      x85 = 0
      x86 = 0
      x87 = 0
 0 <= x88 <= 1
 0 <= x89 <= 1
      x90 = 0
 0 <= x91 <= 1
      x92 = 0
 0 <= x93 <= 1
 0 <= x94 <= 1
 0 <= x95 <= 1
      x96 = 0
      x97 = 0
      x98 = 0
 0 <= x99 <= 1
 0 <= x100 <= 1
      x101 = 0
 0 <= x102 <= 1
      x103 = 0
 0 <= x104 <= 1
 0 <= x105 <= 1
 0 <= x106 <= 1
      x107 = 0
      x108 = 0
      x109 = 0
 0 <= x110 <= 1
 0 <= x111 <= 1
      x112 = 0
 0 <= x113 <= 1
      x114 = 0
 0 <= x115 <= 1
 0 <= x116 <= 1
 0 <= x117 <= 1
      x118 = 0
      x119 = 0
      x120 = 0
 0 <= x121 <= 1
 0 <= x122 <= 1
      x123 = 0
 0 <= x124 <= 1
      x125 = 0
 0 <= x126 <= 1
 0 <= x127 <= 1
 0 <= x128 <= 1
      x129 = 0
      x130 = 0
      x131 = 0
 0 <= x132 <= 1
      x133 = 0
      x134 = 0
      x135 = 0
      x136 = 0
      x137 = 0
      x138 = 0
 0 <= x139 <= 1
 0 <= x140 <= 1
 0 <= x141 <= 1
      x142 = 0
 0 <= x143 <= 1
      x144 = 0
      x145 = 0
      x146 = 0
      x147 = 0
      x148 = 0
      x149 = 0
 0 <= x150 <= 1
 0 <= x151 <= 1
 0 <= x152 <= 1
      x153 = 0
 0 <= x154 <= 1
      x155 = 0
      x156 = 0
      x157 = 0
      x158 = 0
      x159 = 0
      x160 = 0
 0 <= x161 <= 1
 0 <= x162 <= 1
 0 <= x163 <= 1
      x164 = 0
 0 <= x165 <= 1
      x166 = 0
      x167 = 0
      x168 = 0
      x169 = 0
      x170 = 0
      x171 = 0
 0 <= x172 <= 1
 0 <= x173 <= 1
 0 <= x174 <= 1
      x175 = 0
 0 <= x176 <= 1
      x177 = 0
      x178 = 0
      x179 = 0
      x180 = 0
      x181 = 0
      x182 = 0
 0 <= x183 <= 1
 0 <= x184 <= 1
 0 <= x185 <= 1
      x186 = 0
 0 <= x187 <= 1
      x188 = 0
      x189 = 0
      x190 = 0
      x191 = 0
      x192 = 0
      x193 = 0
 0 <= x194 <= 1
 0 <= x195 <= 1
 0 <= x196 <= 1
      x197 = 0
 0 <= x198 <= 1
      x199 = 0
      x200 = 0
      x201 = 0
      x202 = 0
      x203 = 0
      x204 = 0
 0 <= x205 <= 1
 0 <= x206 <= 1
 0 <= x207 <= 1
      x208 = 0
 0 <= x209 <= 1
      x210 = 0
      x211 = 0
      x212 = 0
      x213 = 0
      x214 = 0
      x215 = 0
 0 <= x216 <= 1
 0 <= x217 <= 1
 0 <= x218 <= 1
      x219 = 0
 0 <= x220 <= 1
      x221 = 0
      x222 = 0
      x223 = 0
      x224 = 0
      x225 = 0
      x226 = 0
 0 <= x227 <= 1
 0 <= x228 <= 1
 0 <= x229 <= 1
      x230 = 0
 0 <= x231 <= 1
      x232 = 0
      x233 = 0
      x234 = 0
      x235 = 0
      x236 = 0
      x237 = 0
 0 <= x238 <= 1
 0 <= x239 <= 1
 0 <= x240 <= 1
      x241 = 0
 0 <= x242 <= 1
      x243 = 0
      x244 = 0
      x245 = 0
      x246 = 0
      x247 = 0
      x248 = 0
 0 <= x249 <= 1
 0 <= x250 <= 1
 0 <= x251 <= 1
      x252 = 0
 0 <= x253 <= 1
      x254 = 0
      x255 = 0
      x256 = 0
      x257 = 0
      x258 = 0
      x259 = 0
      x260 = 0
      x261 = 0
      x262 = 0
 0 <= x263 <= 1
 0 <= x264 <= 1
      x265 = 0
      x266 = 0
      x267 = 0
      x268 = 0
      x269 = 0
      x270 = 0
      x271 = 0
      x272 = 0
      x273 = 0
 0 <= x274 <= 1
 0 <= x275 <= 1
      x276 = 0
      x277 = 0
      x278 = 0
      x279 = 0
      x280 = 0
      x281 = 0
      x282 = 0
      x283 = 0
      x284 = 0
 0 <= x285 <= 1
 0 <= x286 <= 1
      x287 = 0
      x288 = 0
      x289 = 0
      x290 = 0
      x291 = 0
      x292 = 0
      x293 = 0
      x294 = 0
      x295 = 0
 0 <= x296 <= 1
 0 <= x297 <= 1
      x298 = 0
      x299 = 0
      x300 = 0
      x301 = 0
      x302 = 0
      x303 = 0
      x304 = 0
      x305 = 0
      x306 = 0
 0 <= x307 <= 1
 0 <= x308 <= 1
      x309 = 0
      x310 = 0
      x311 = 0
      x312 = 0
      x313 = 0
      x314 = 0
      x315 = 0
      x316 = 0
      x317 = 0
 0 <= x318 <= 1
 0 <= x319 <= 1
      x320 = 0
      x321 = 0
      x322 = 0
      x323 = 0
      x324 = 0
      x325 = 0
      x326 = 0
      x327 = 0
      x328 = 0
 0 <= x329 <= 1
 0 <= x330 <= 1
      x331 = 0
      x332 = 0
      x333 = 0
      x334 = 0
      x335 = 0
      x336 = 0
      x337 = 0
      x338 = 0
      x339 = 0
 0 <= x340 <= 1
 0 <= x341 <= 1
      x342 = 0
      x343 = 0
      x344 = 0
      x345 = 0
      x346 = 0
      x347 = 0
      x348 = 0
      x349 = 0
      x350 = 0
 0 <= x351 <= 1
 0 <= x352 <= 1
      x353 = 0
      x354 = 0
      x355 = 0
      x356 = 0
      x357 = 0
      x358 = 0
      x359 = 0
      x360 = 0
      x361 = 0
 0 <= x362 <= 1
 0 <= x363 <= 1
      x364 = 0
      x365 = 0
      x366 = 0
      x367 = 0
      x368 = 0
      x369 = 0
      x370 = 0
      x371 = 0
      x372 = 0
 0 <= x373 <= 1
 0 <= x374 <= 1
 0 <= x375 <= 1
 0 <= x376 <= 1
 0 <= x377 <= 1
 0 <= x378 <= 1
 0 <= x379 <= 1
 0 <= x380 <= 1
 0 <= x381 <= 1
 0 <= x382 <= 1
 0 <= x383 <= 1
 0 <= x384 <= 1
 0 <= x385 <= 1
Binaries
 x1  x2  x3  x4  x5  x6  x7  x8  x9  x10  x11  x12  x13  x14  x15  x16  x17 
 x18  x19  x20  x21  x22  x23  x24  x25  x26  x27  x28  x29  x30  x31  x32 
 x33  x34  x35  x36  x37  x38  x39  x40  x41  x42  x43  x44  x45  x46  x47 
 x48  x49  x50  x51  x52  x53  x54  x55  x56  x57  x58  x59  x60  x61  x62 
 x63  x64  x65  x66  x67  x68  x69  x70  x71  x72  x73  x74  x75  x76  x77 
 x78  x79  x80  x81  x82  x83  x84  x85  x86  x87  x88  x89  x90  x91  x92 
 x93  x94  x95  x96  x97  x98  x99  x100  x101  x102  x103  x104  x105  x106 
 x107  x108  x109  x110  x111  x112  x113  x114  x115  x116  x117  x118  x119 
 x120  x121  x122  x123  x124  x125  x126  x127  x128  x129  x130  x131  x132 
 x133  x134  x135  x136  x137  x138  x139  x140  x141  x142  x143  x144  x145 
 x146  x147  x148  x149  x150  x151  x152  x153  x154  x155  x156  x157  x158 
 x159  x160  x161  x162  x163  x164  x165  x166  x167  x168  x169  x170  x171 
 x172  x173  x174  x175  x176  x177  x178  x179  x180  x181  x182  x183  x184 
 x185  x186  x187  x188  x189  x190  x191  x192  x193  x194  x195  x196  x197 
 x198  x199  x200  x201  x202  x203  x204  x205  x206  x207  x208  x209  x210 
 x211  x212  x213  x214  x215  x216  x217  x218  x219  x220  x221  x222  x223 
 x224  x225  x226  x227  x228  x229  x230  x231  x232  x233  x234  x235  x236 
 x237  x238  x239  x240  x241  x242  x243  x244  x245  x246  x247  x248  x249 
 x250  x251  x252  x253  x254  x255  x256  x257  x258  x259  x260  x261  x262 
 x263  x264  x265  x266  x267  x268  x269  x270  x271  x272  x273  x274  x275 
 x276  x277  x278  x279  x280  x281  x282  x283  x284  x285  x286  x287  x288 
 x289  x290  x291  x292  x293  x294  x295  x296  x297  x298  x299  x300  x301 
 x302  x303  x304  x305  x306  x307  x308  x309  x310  x311  x312  x313  x314 
 x315  x316  x317  x318  x319  x320  x321  x322  x323  x324  x325  x326  x327 
 x328  x329  x330  x331  x332  x333  x334  x335  x336  x337  x338  x339  x340 
 x341  x342  x343  x344  x345  x346  x347  x348  x349  x350  x351  x352  x353 
 x354  x355  x356  x357  x358  x359  x360  x361  x362  x363  x364  x365  x366 
 x367  x368  x369  x370  x371  x372  x373  x374  x375  x376  x377  x378  x379 
 x380  x381  x382  x383  x384  x385 
End
